Traveling Salesman Problem/TSP_generados/Aleatorio1620397769_18.tsp
NAME: Aleatorio1620397769_18.tsp
COMMENT: Randomly generated scenario
TYPE: TSP
DIMENSION: 18
EDGE_WEIGHT_TYPE: ATT
NODE_COORD_SECTION
1 16.2 49.29
2 21.32 49.98
3 3.83 46.77
4 30.69 42.55
5 19.64 42.77
6 14.22 45.78
7 5.55 46.61
8 37.64 1.29
9 16.3 4.81
10 39.82 3.19
11 42.16 27.09
12 49.28 29.12
13 35.67 15.89
14 48.06 18.35
15 40.92 9.8
16 46.79 32.47
17 15.16 8.89
18 46.7 6.2
