Traveling Salesman Problem/TSP_generados/Aleatorio1620397769_18.opt.tour
NAME: Aleatorio1620397769_18.opt.tour
COMMENT: Optimal solution for Aleatorio1620397769_18 (182.4926130704163)
TYPE: TOUR
DIMENSION: 18
TOUR_SECTION
1 2 5 4 16 12 11 14 13 15 18 10 8 9 17 3 7 6
-1
EOF
